NAME : eil101.tour
COMMENT : Held-Karp solution of eil101 (length 630)
TYPE : TOUR
DIMENSION : 101
TOUR_SECTION
1
50
76
77
3
79
78
34
81
33
51
9
71
35
65
66
20
30
70
31
88
7
82
48
19
11
62
10
32
90
63
64
49
36
47
46
8
45
17
84
5
60
83
18
52
89
6
96
99
93
59
92
37
98
100
91
85
61
16
86
44
38
14
42
43
15
57
2
87
97
95
94
13
58
40
21
73
72
74
22
41
75
56
23
67
39
25
55
4
54
24
29
68
80
12
26
28
53
101
27
69
-1
EOF
